(set-logic ALL)
(declare-const days_VAR Int)
(declare-const absent_VAR Int)
(declare-const late_VAR Int)
(assert (not (= late_VAR 3)))
(assert (not (= absent_VAR 2)))
(assert (not (= days_VAR 0)))
(assert (not (= (+ late_VAR 1) 3)))
(assert (not (= absent_VAR 2)))
(assert (not (= (- days_VAR 1) 0)))
(assert (not (= (+ (+ late_VAR 1) 1) 3)))
(assert (not (= absent_VAR 2)))
(assert (not (= (- (- days_VAR 1) 1) 0)))
(assert (= (+ (+ (+ late_VAR 1) 1) 1) 3))
(assert (not (= (+ absent_VAR 1) 2)))
(assert (= (- (- (- days_VAR 1) 1) 1) 0))
(check-sat)
(get-value (days_VAR))
(get-value (absent_VAR))
(get-value (late_VAR))
